0
Node Left Objective IInf Best_Integer Best_Bound ItCnt Gap
0+ 0 nan nan 136.4723 0.0000 nan 100.00%
0+ 0 nan nan 99.1655 0.0000 nan 100.00%
0 0 33.3849 15 99.1655 33.3849 159 66.33%
0+ 0 nan nan 85.5351 33.3849 nan 60.97%
0 0 33.5067 22 85.5351 Cuts:10 180 60.83%
0 0 34.6881 22 85.5351 Cuts:20 203 59.45%
0+ 0 nan nan 78.3485 34.6881 nan 55.73%
0 0 36.2351 24 78.3485 Cuts:27 235 53.75%
0 0 36.9827 24 78.3485 Cuts:23 265 52.80%
0 0 37.3552 23 78.3485 Cuts:14 296 52.32%
0 0 37.3552 23 78.3485 Disjcuts:1 297 52.32%
0+ 0 nan nan 74.2724 37.3552 nan 49.71%
0+ 0 nan nan 67.2177 37.3552 nan 44.43%
0 2 37.3552 23 67.2177 37.4082 297 44.35%
CPXPARAM_MIP_Cuts_Gomory-Disjunctive:Gomory 1
CPXPARAM_MIP_Cuts_Gomory-Disjunctive:Disjunctive 17
1
Node Left Objective IInf Best_Integer Best_Bound ItCnt Gap
0+ 0 nan nan 136.4723 0.0000 nan 100.00%
0+ 0 nan nan 99.1655 0.0000 nan 100.00%
0 0 0.0000 28 99.1655 0.0000 115 100.00%
0+ 0 nan nan 78.9783 0.0000 nan 100.00%
0 0 0.0000 22 78.9783 Disjcuts:1 117 100.00%
0+ 0 nan nan 68.9499 0.0000 nan 100.00%
0 0 0.0000 23 68.9499 Cuts:18 147 100.00%
0+ 0 nan nan 35.5554 0.0000 nan 100.00%
0 0 0.0000 20 35.5554 Cuts:8 167 100.00%
0+ 0 nan nan 33.6451 0.0000 nan 100.00%
0 0 0.0000 23 33.6451 Cuts:25 213 100.00%
0+ 0 nan nan 32.8180 0.0000 nan 100.00%
0+ 0 nan nan 29.8906 0.0000 nan 100.00%
0 2 0.0000 23 29.8906 0.0000 213 100.00%
CPXPARAM_MIP_Cuts_Gomory-Disjunctive:Gomory 5
CPXPARAM_MIP_Cuts_Gomory-Disjunctive:Disjunctive 2
2
Node Left Objective IInf Best_Integer Best_Bound ItCnt Gap
0+ 0 nan nan 136.4723 0.0000 nan 100.00%
0+ 0 nan nan 69.8576 0.0000 nan 100.00%
0 0 24.3849 14 69.8576 24.3849 151 65.09%
0 0 25.0835 23 69.8576 Cuts:11 180 64.09%
0 0 26.1850 23 69.8576 Cuts:22 204 62.52%
0 0 26.7522 24 69.8576 Cuts:15 220 61.70%
0+ 0 nan nan 65.8283 26.7522 nan 59.36%
0 0 26.9972 23 65.8283 Cuts:8 231 58.99%
0 0 27.2516 24 65.8283 Cuts:4 243 58.60%
0+ 0 nan nan 52.8821 27.2516 nan 48.47%
0+ 0 nan nan 51.4405 27.2516 nan 47.02%
0 2 27.2516 24 51.4405 27.2772 243 46.97%
CPXPARAM_MIP_Cuts_Gomory-Disjunctive:Gomory 6
CPXPARAM_MIP_Cuts_Gomory-Disjunctive:Disjunctive 9
3
Node Left Objective IInf Best_Integer Best_Bound ItCnt Gap
0+ 0 nan nan 136.4723 0.0000 nan 100.00%
0+ 0 nan nan 75.0384 0.0000 nan 100.00%
0 0 0.0000 24 75.0384 0.0000 120 100.00%
0+ 0 nan nan 36.5345 0.0000 nan 100.00%
0+ 0 nan nan 33.9942 0.0000 nan 100.00%
0+ 0 nan nan 31.0672 0.0000 nan 100.00%
0 2 0.0000 22 31.0672 0.0000 120 100.00%
CPXPARAM_MIP_Cuts_Gomory-Disjunctive:Gomory 0
CPXPARAM_MIP_Cuts_Gomory-Disjunctive:Disjunctive 0
4
Node Left Objective IInf Best_Integer Best_Bound ItCnt Gap
0+ 0 nan nan 115.1924 0.0000 nan 100.00%
0+ 0 nan nan 108.1598 0.0000 nan 100.00%
0+ 0 nan nan 98.2525 0.0000 nan 100.00%
0 0 43.8454 17 98.2525 43.8454 151 55.37%
0+ 0 nan nan 69.2925 43.8454 nan 36.72%
0 0 43.8454 17 69.2925 Cuts:5 168 36.72%
0+ 0 nan nan 63.6842 43.8454 nan 31.15%
0 0 44.4122 20 63.6842 Cuts:9 191 30.26%
0+ 0 nan nan 56.8420 44.4122 nan 21.87%
0 0 44.5333 22 56.8420 Cuts:21 206 21.65%
0 0 44.7365 21 56.8420 Cuts:9 219 21.30%
0 0 44.8633 22 56.8420 Cuts:12 247 21.07%
0 0 44.8633 23 56.8420 Disjcuts:1 249 21.07%
0 2 44.8633 17 56.8420 44.8884 249 21.03%
CPXPARAM_MIP_Cuts_Gomory-Disjunctive:Gomory 2
CPXPARAM_MIP_Cuts_Gomory-Disjunctive:Disjunctive 8
5
Node Left Objective IInf Best_Integer Best_Bound ItCnt Gap
0+ 0 nan nan 115.1924 0.0000 nan 100.00%
0+ 0 nan nan 108.1598 0.0000 nan 100.00%
0+ 0 nan nan 79.8300 0.0000 nan 100.00%
0 0 0.0000 27 79.8300 0.0000 119 100.00%
0+ 0 nan nan 36.1020 0.0000 nan 100.00%
0 0 0.0000 22 36.1020 Cuts:11 135 100.00%
0+ 0 nan nan 27.2850 0.0000 nan 100.00%
0 0 0.0000 25 27.2850 Cuts:27 200 100.00%
0 2 0.0000 24 27.2850 0.0000 200 100.00%
CPXPARAM_MIP_Cuts_Gomory-Disjunctive:Gomory 1
CPXPARAM_MIP_Cuts_Gomory-Disjunctive:Disjunctive 0
6
Node Left Objective IInf Best_Integer Best_Bound ItCnt Gap
0+ 0 nan nan 115.1924 0.0000 nan 100.00%
0+ 0 nan nan 81.9438 0.0000 nan 100.00%
0 0 43.8454 12 81.9438 43.8454 158 46.49%
0+ 0 nan nan 60.6985 43.8454 nan 27.77%
0 0 43.8454 11 60.6985 Cuts:9 171 27.77%
0+ 0 nan nan 50.4435 43.8454 nan 13.08%
0 0 44.1439 21 50.4435 Cuts:15 203 12.49%
0 0 44.6624 23 50.4435 Cuts:14 228 11.46%
0 0 44.8502 18 50.4435 Disjcuts:7 246 11.09%
0 0 44.9217 18 50.4435 Disjcuts:2 254 10.95%
0 2 44.9917 13 50.4435 45.1192 254 10.55%
CPXPARAM_MIP_Cuts_Gomory-Disjunctive:Gomory 3
CPXPARAM_MIP_Cuts_Gomory-Disjunctive:Disjunctive 12
7
Node Left Objective IInf Best_Integer Best_Bound ItCnt Gap
0+ 0 nan nan 115.1924 0.0000 nan 100.00%
0+ 0 nan nan 81.9438 0.0000 nan 100.00%
0 0 0.0000 23 81.9438 0.0000 124 100.00%
0+ 0 nan nan 22.7644 0.0000 nan 100.00%
0 0 0.0000 15 22.7644 Cuts:7 135 100.00%
0+ 0 nan nan 13.2997 0.0000 nan 100.00%
0 0 0.0000 16 13.2997 Cuts:14 171 100.00%
0 0 0.0000 15 13.2997 Fract:4 174 100.00%
0+ 0 nan nan 11.0791 0.0000 nan 100.00%
0 2 0.0000 15 11.0791 0.0000 174 100.00%
CPXPARAM_MIP_Cuts_Gomory-Disjunctive:Gomory 1
CPXPARAM_MIP_Cuts_Gomory-Disjunctive:Disjunctive 0
8
Node Left Objective IInf Best_Integer Best_Bound ItCnt Gap
0+ 0 nan nan 131.6037 0.0000 nan 100.00%
0+ 0 nan nan 111.2422 0.0000 nan 100.00%
0 0 56.1710 14 111.2422 56.1710 148 49.51%
0+ 0 nan nan 111.0462 56.1710 nan 49.42%
0 0 56.1809 19 111.0462 Cuts:10 168 49.41%
0+ 0 nan nan 90.7142 56.1809 nan 38.07%
0 0 56.9796 20 90.7142 Cuts:19 192 37.19%
0 0 57.0178 23 90.7142 Cuts:11 214 37.15%
0+ 0 nan nan 76.7492 57.0178 nan 25.71%
0 0 57.0888 28 76.7492 Cuts:17 245 25.62%
0 0 57.2398 26 76.7492 Disjcuts:7 262 25.42%
0+ 0 nan nan 74.5191 57.2398 nan 23.19%
0+ 0 nan nan 67.9166 57.2398 nan 15.72%
0 2 57.2398 26 67.9166 57.2403 262 15.72%
CPXPARAM_MIP_Cuts_Gomory-Disjunctive:Gomory 6
CPXPARAM_MIP_Cuts_Gomory-Disjunctive:Disjunctive 18
9
Node Left Objective IInf Best_Integer Best_Bound ItCnt Gap
0+ 0 nan nan 131.6037 0.0000 nan 100.00%
0+ 0 nan nan 111.2422 0.0000 nan 100.00%
0 0 0.0000 28 111.2422 0.0000 121 100.00%
0+ 0 nan nan 69.1407 0.0000 nan 100.00%
0 0 0.0000 23 69.1407 Cuts:2 138 100.00%
0+ 0 nan nan 51.4963 0.0000 nan 100.00%
0 0 0.0000 24 51.4963 Cuts:22 197 100.00%
0 0 0.0000 23 51.4963 Cuts:3 206 100.00%
0+ 0 nan nan 39.1251 0.0000 nan 100.00%
0+ 0 nan nan 30.1477 0.0000 nan 100.00%
0+ 0 nan nan 27.6916 0.0000 nan 100.00%
0+ 0 nan nan 25.7952 0.0000 nan 100.00%
0 2 0.0000 23 25.7952 0.0000 206 100.00%
CPXPARAM_MIP_Cuts_Gomory-Disjunctive:Gomory 2
CPXPARAM_MIP_Cuts_Gomory-Disjunctive:Disjunctive 1
10
Node Left Objective IInf Best_Integer Best_Bound ItCnt Gap
0+ 0 nan nan 131.6037 0.0000 nan 100.00%
0+ 0 nan nan 99.6733 0.0000 nan 100.00%
0 0 41.1710 14 99.6733 41.1710 157 58.69%
0 0 41.1710 15 99.6733 Cuts:12 178 58.69%
0 0 41.9961 20 99.6733 Cuts:12 192 57.87%
0+ 0 nan nan 87.4757 41.9961 nan 51.99%
0 0 43.3863 20 87.4757 Cuts:12 203 50.40%
0+ 0 nan nan 85.0248 43.3863 nan 48.97%
0 0 43.9549 20 85.0248 Cuts:10 215 48.30%
0+ 0 nan nan 84.9732 43.9549 nan 48.27%
0 0 44.4165 21 84.9732 Disjcuts:8 229 47.73%
0 0 44.6169 22 84.9732 Disjcuts:2 236 47.49%
0 0 44.7063 21 84.9732 Disjcuts:2 240 47.39%
0 0 44.8078 22 84.9732 Disjcuts:2 244 47.27%
0+ 0 nan nan 72.6380 44.8078 nan 38.31%
0+ 0 nan nan 63.6659 44.8078 nan 29.62%
0 2 44.8078 22 63.6659 44.8532 244 29.55%
CPXPARAM_MIP_Cuts_Gomory-Disjunctive:Gomory 7
CPXPARAM_MIP_Cuts_Gomory-Disjunctive:Disjunctive 15
11
Node Left Objective IInf Best_Integer Best_Bound ItCnt Gap
0+ 0 nan nan 131.6037 0.0000 nan 100.00%
0+ 0 nan nan 99.6733 0.0000 nan 100.00%
0 0 0.0000 23 99.6733 0.0000 120 100.00%
0+ 0 nan nan 65.2931 0.0000 nan 100.00%
0 0 0.0000 20 65.2931 Cuts:9 133 100.00%
0+ 0 nan nan 39.6301 0.0000 nan 100.00%
0 0 0.0000 21 39.6301 Cuts:21 185 100.00%
0 0 0.0000 20 39.6301 Cuts:7 200 100.00%
0+ 0 nan nan 28.6942 0.0000 nan 100.00%
0+ 0 nan nan 28.0236 0.0000 nan 100.00%
0 2 0.0000 17 28.0236 0.0000 200 100.00%
CPXPARAM_MIP_Cuts_Gomory-Disjunctive:Gomory 0
CPXPARAM_MIP_Cuts_Gomory-Disjunctive:Disjunctive 0
12
Node Left Objective IInf Best_Integer Best_Bound ItCnt Gap
0+ 0 nan nan 110.3567 0.0000 nan 100.00%
0+ 0 nan nan 96.6816 0.0000 nan 100.00%
0 0 34.1191 21 96.6816 34.1191 158 64.71%
0 0 34.1191 18 96.6816 Cuts:6 177 64.71%
0+ 0 nan nan 84.8389 34.1191 nan 59.78%
0 0 35.1084 26 84.8389 Cuts:15 199 58.62%
0+ 0 nan nan 73.5625 35.1084 nan 52.27%
0 0 36.3984 29 73.5625 Cuts:33 228 50.52%
0 0 36.7193 29 73.5625 Cuts:20 249 50.08%
0 0 36.9946 28 73.5625 Disjcuts:14 263 49.71%
0 0 37.1176 29 73.5625 Cuts:3 268 49.54%
0 0 37.1343 28 73.5625 Fract:2 271 49.52%
0+ 0 nan nan 69.4699 37.1343 nan 46.55%
0 2 37.1343 28 69.4699 37.1396 271 46.54%
CPXPARAM_MIP_Cuts_Gomory-Disjunctive:Gomory 4
CPXPARAM_MIP_Cuts_Gomory-Disjunctive:Disjunctive 17
13
Node Left Objective IInf Best_Integer Best_Bound ItCnt Gap
0+ 0 nan nan 110.3567 0.0000 nan 100.00%
0+ 0 nan nan 96.6816 0.0000 nan 100.00%
0 0 0.0000 27 96.6816 0.0000 127 100.00%
0+ 0 nan nan 76.3632 0.0000 nan 100.00%
0 0 0.0000 23 76.3632 Disjcuts:1 137 100.00%
0+ 0 nan nan 70.4959 0.0000 nan 100.00%
0 0 0.0000 26 70.4959 Cuts:27 196 100.00%
0+ 0 nan nan 52.3002 0.0000 nan 100.00%
0+ 0 nan nan 47.4047 0.0000 nan 100.00%
0 2 0.0000 21 47.4047 0.0000 196 100.00%
CPXPARAM_MIP_Cuts_Gomory-Disjunctive:Gomory 0
CPXPARAM_MIP_Cuts_Gomory-Disjunctive:Disjunctive 0
14
Node Left Objective IInf Best_Integer Best_Bound ItCnt Gap
0+ 0 nan nan 110.3567 0.0000 nan 100.00%
0+ 0 nan nan 82.1268 0.0000 nan 100.00%
0 0 31.1191 14 82.1268 31.1191 165 62.11%
0+ 0 nan nan 72.3622 31.1191 nan 57.00%
0 0 31.1191 16 72.3622 Cuts:4 180 57.00%
0 0 32.1712 23 72.3622 Cuts:15 199 55.54%
0 0 33.1075 21 72.3622 Cuts:10 215 54.25%
0 0 34.3607 23 72.3622 Cuts:13 241 52.52%
0 0 34.7040 22 72.3622 Disjcuts:8 261 52.04%
0+ 0 nan nan 66.7386 34.7040 nan 48.00%
0 0 34.8028 24 66.7386 Cuts:3 269 47.85%
0+ 0 nan nan 59.5650 34.8028 nan 41.57%
0+ 0 nan nan 56.7689 34.8028 nan 38.69%
0 2 34.8028 24 56.7689 34.8490 269 38.61%
CPXPARAM_MIP_Cuts_Gomory-Disjunctive:Gomory 4
CPXPARAM_MIP_Cuts_Gomory-Disjunctive:Disjunctive 14
15
Node Left Objective IInf Best_Integer Best_Bound ItCnt Gap
0+ 0 nan nan 110.3567 0.0000 nan 100.00%
0+ 0 nan nan 82.1268 0.0000 nan 100.00%
0 0 0.0000 23 82.1268 0.0000 113 100.00%
0+ 0 nan nan 49.7602 0.0000 nan 100.00%
0+ 0 nan nan 39.6624 0.0000 nan 100.00%
0+ 0 nan nan 24.8381 0.0000 nan 100.00%
0 2 0.0000 18 24.8381 0.0000 113 100.00%
CPXPARAM_MIP_Cuts_Gomory-Disjunctive:Gomory 0
CPXPARAM_MIP_Cuts_Gomory-Disjunctive:Disjunctive 0
16
Node Left Objective IInf Best_Integer Best_Bound ItCnt Gap
0+ 0 nan nan 109.2984 0.0000 nan 100.00%
0+ 0 nan nan 97.6971 0.0000 nan 100.00%
0 0 41.5886 15 97.6971 41.5886 169 57.43%
0+ 0 nan nan 88.2052 41.5886 nan 52.85%
0 0 41.7224 25 88.2052 Cuts:13 191 52.70%
0+ 0 nan nan 80.9600 41.7224 nan 48.47%
0 0 42.4888 31 80.9600 Cuts:17 211 47.52%
0 0 42.8227 32 80.9600 Cuts:13 230 47.11%
0 0 42.8744 31 80.9600 Cuts:6 240 47.04%
0 0 42.9076 29 80.9600 Disjcuts:3 247 47.00%
0+ 0 nan nan 60.6241 42.9076 nan 29.22%
0 2 42.9076 29 60.6241 42.9293 247 29.19%
CPXPARAM_MIP_Cuts_Gomory-Disjunctive:Gomory 10
CPXPARAM_MIP_Cuts_Gomory-Disjunctive:Disjunctive 15
17
Node Left Objective IInf Best_Integer Best_Bound ItCnt Gap
0+ 0 nan nan 109.2984 0.0000 nan 100.00%
0+ 0 nan nan 97.6971 0.0000 nan 100.00%
0 0 0.0000 28 97.6971 0.0000 112 100.00%
0+ 0 nan nan 85.3739 0.0000 nan 100.00%
0 0 0.0000 25 85.3739 Cuts:5 118 100.00%
0+ 0 nan nan 64.0602 0.0000 nan 100.00%
0 0 0.0000 26 64.0602 Cuts:16 142 100.00%
0 0 0.0000 27 64.0602 Cuts:20 157 100.00%
0+ 0 nan nan 58.0755 0.0000 nan 100.00%
0+ 0 nan nan 46.6709 0.0000 nan 100.00%
0+ 0 nan nan 45.5696 0.0000 nan 100.00%
0+ 0 nan nan 36.5313 0.0000 nan 100.00%
0 2 0.0000 25 36.5313 0.0000 157 100.00%
CPXPARAM_MIP_Cuts_Gomory-Disjunctive:Gomory 0
CPXPARAM_MIP_Cuts_Gomory-Disjunctive:Disjunctive 0
18
Node Left Objective IInf Best_Integer Best_Bound ItCnt Gap
0+ 0 nan nan 109.2984 0.0000 nan 100.00%
0+ 0 nan nan 86.6088 0.0000 nan 100.00%
0 0 47.5886 9 86.6088 47.5886 159 45.05%
0+ 0 nan nan 60.8649 47.5886 nan 21.81%
0 0 47.5886 12 60.8649 Cuts:10 176 21.81%
0 0 48.1920 20 60.8649 Cuts:12 195 20.82%
0 0 48.6428 21 60.8649 Cuts:11 206 20.08%
0 0 49.0536 22 60.8649 Cuts:11 220 19.41%
0 0 49.2284 22 60.8649 Cuts:9 241 19.12%
0 0 49.2990 23 60.8649 Disjcuts:2 249 19.00%
0 0 49.3106 23 60.8649 Fract:3 250 18.98%
0+ 0 nan nan 58.8374 49.3106 nan 16.19%
0+ 0 nan nan 56.4172 49.3106 nan 12.60%
0 2 49.4472 15 56.4172 49.4646 250 12.32%
CPXPARAM_MIP_Cuts_Gomory-Disjunctive:Gomory 6
CPXPARAM_MIP_Cuts_Gomory-Disjunctive:Disjunctive 15
19
Node Left Objective IInf Best_Integer Best_Bound ItCnt Gap
0+ 0 nan nan 109.2984 0.0000 nan 100.00%
0+ 0 nan nan 86.6088 0.0000 nan 100.00%
0 0 0.0000 23 86.6088 0.0000 120 100.00%
0+ 0 nan nan 30.7528 0.0000 nan 100.00%
0 0 0.0000 21 30.7528 Cuts:14 144 100.00%
0 0 0.0000 21 30.7528 Cuts:25 192 100.00%
0 0 0.0000 22 30.7528 Cuts:10 228 100.00%
0+ 0 nan nan 30.3666 0.0000 nan 100.00%
0+ 0 nan nan 26.8139 0.0000 nan 100.00%
0+ 0 nan nan 22.4042 0.0000 nan 100.00%
0 2 0.0000 19 22.4042 0.0000 228 100.00%
CPXPARAM_MIP_Cuts_Gomory-Disjunctive:Gomory 0
CPXPARAM_MIP_Cuts_Gomory-Disjunctive:Disjunctive 0
20
Node Left Objective IInf Best_Integer Best_Bound ItCnt Gap
0+ 0 nan nan 93.3792 0.0000 nan 100.00%
0+ 0 nan nan 84.6822 0.0000 nan 100.00%
0 0 25.2745 20 84.6822 25.2745 154 70.15%
0+ 0 nan nan 41.6508 25.2745 nan 39.32%
0 0 25.4651 28 41.6508 Cuts:13 191 38.86%
0 0 26.0741 26 41.6508 Cuts:27 236 37.40%
0+ 0 nan nan 35.0266 26.0741 nan 25.56%
0 0 26.4298 27 35.0266 Cuts:13 268 24.54%
0 0 26.6726 25 35.0266 Disjcuts:13 305 23.85%
0 0 26.8571 20 35.0266 Cuts:8 334 23.32%
0 2 26.9839 16 35.0266 27.0566 334 22.75%
CPXPARAM_MIP_Cuts_Gomory-Disjunctive:Gomory 2
CPXPARAM_MIP_Cuts_Gomory-Disjunctive:Disjunctive 11
21
Node Left Objective IInf Best_Integer Best_Bound ItCnt Gap
0+ 0 nan nan 93.3792 0.0000 nan 100.00%
0+ 0 nan nan 84.6822 0.0000 nan 100.00%
0 0 0.0000 27 84.6822 0.0000 119 100.00%
0+ 0 nan nan 44.4240 0.0000 nan 100.00%
0+ 0 nan nan 28.6436 0.0000 nan 100.00%
0+ 0 nan nan 21.5128 0.0000 nan 100.00%
0+ 0 nan nan 21.3939 0.0000 nan 100.00%
0 2 0.0000 22 21.3939 0.0000 119 100.00%
CPXPARAM_MIP_Cuts_Gomory-Disjunctive:Gomory 0
CPXPARAM_MIP_Cuts_Gomory-Disjunctive:Disjunctive 0
22
Node Left Objective IInf Best_Integer Best_Bound ItCnt Gap
0+ 0 nan nan 93.3792 0.0000 nan 100.00%
0+ 0 nan nan 77.4137 0.0000 nan 100.00%
0 0 25.2745 12 77.4137 25.2745 170 67.35%
0+ 0 nan nan 37.8382 25.2745 nan 33.20%
0 0 25.2745 12 37.8382 Cuts:5 184 33.20%
0 0 25.7226 22 37.8382 Cuts:9 212 32.02%
0 0 25.9458 20 37.8382 Cuts:18 235 31.43%
0+ 0 nan nan 33.0436 25.9458 nan 21.48%
0 0 26.1586 22 33.0436 Cuts:8 255 20.84%
0 0 26.2832 22 33.0436 Cuts:8 274 20.46%
0 0 26.2832 23 33.0436 Disjcuts:1 275 20.46%
0+ 0 nan nan 30.8507 26.2832 nan 14.81%
0 2 26.3793 7 30.8507 26.3871 275 14.47%
CPXPARAM_MIP_Cuts_Gomory-Disjunctive:Gomory 1
CPXPARAM_MIP_Cuts_Gomory-Disjunctive:Disjunctive 12
23
Node Left Objective IInf Best_Integer Best_Bound ItCnt Gap
0+ 0 nan nan 93.3792 0.0000 nan 100.00%
0+ 0 nan nan 77.4137 0.0000 nan 100.00%
0 0 0.0000 22 77.4137 0.0000 113 100.00%
0+ 0 nan nan 17.3568 0.0000 nan 100.00%
0 0 0.0000 17 17.3568 Disjcuts:2 115 100.00%
0+ 0 nan nan 9.1238 0.0000 nan 100.00%
0 0 0.0000 17 9.1238 Cuts:20 150 100.00%
0 0 0.0000 16 9.1238 Cuts:14 159 100.00%
0+ 0 nan nan 8.6204 0.0000 nan 100.00%
0+ 0 nan nan 8.2309 0.0000 nan 100.00%
0 2 0.0000 14 8.2309 0.0000 159 100.00%
CPXPARAM_MIP_Cuts_Gomory-Disjunctive:Gomory 2
CPXPARAM_MIP_Cuts_Gomory-Disjunctive:Disjunctive 0
24
Node Left Objective IInf Best_Integer Best_Bound ItCnt Gap
0+ 0 nan nan 94.5045 0.0000 nan 100.00%
0+ 0 nan nan 83.7373 0.0000 nan 100.00%
0 0 29.8402 15 83.7373 29.8402 167 64.36%
0+ 0 nan nan 51.8847 29.8402 nan 42.49%
0 0 29.9846 28 51.8847 Cuts:10 197 42.21%
0+ 0 nan nan 51.5171 29.9846 nan 41.80%
0 0 30.8556 27 51.5171 Cuts:29 230 40.11%
0 0 31.2372 28 51.5171 Cuts:21 246 39.37%
0+ 0 nan nan 49.9956 31.2372 nan 37.52%
0 0 31.3688 27 49.9956 Cuts:10 263 37.26%
0+ 0 nan nan 45.1641 31.3688 nan 30.54%
0 0 31.9088 25 45.1641 Cuts:8 287 29.35%
0+ 0 nan nan 42.0962 31.9088 nan 24.20%
0+ 0 nan nan 41.9692 31.9088 nan 23.97%
0 2 32.0271 19 41.9692 32.0516 287 23.63%
CPXPARAM_MIP_Cuts_Gomory-Disjunctive:Gomory 2
CPXPARAM_MIP_Cuts_Gomory-Disjunctive:Disjunctive 15
25
Node Left Objective IInf Best_Integer Best_Bound ItCnt Gap
0+ 0 nan nan 94.5045 0.0000 nan 100.00%
0+ 0 nan nan 83.7373 0.0000 nan 100.00%
0 0 0.0000 27 83.7373 0.0000 118 100.00%
0+ 0 nan nan 36.3258 0.0000 nan 100.00%
0+ 0 nan nan 18.8427 0.0000 nan 100.00%
0+ 0 nan nan 15.2937 0.0000 nan 100.00%
0 2 0.0000 18 15.2937 0.0000 118 100.00%
CPXPARAM_MIP_Cuts_Gomory-Disjunctive:Gomory 0
CPXPARAM_MIP_Cuts_Gomory-Disjunctive:Disjunctive 0
26
Node Left Objective IInf Best_Integer Best_Bound ItCnt Gap
0+ 0 nan nan 94.5045 0.0000 nan 100.00%
0+ 0 nan nan 77.5045 0.0000 nan 100.00%
0 0 29.8490 11 77.5045 29.8490 180 61.49%
0+ 0 nan nan 39.9570 29.8490 nan 25.30%
0 0 29.8490 20 39.9570 Cuts:5 202 25.30%
0 0 31.0161 22 39.9570 Cuts:17 228 22.38%
0+ 0 nan nan 39.1708 31.0161 nan 20.82%
0 0 32.0858 20 39.1708 Cuts:18 248 18.09%
0 0 32.2032 22 39.1708 Cuts:8 261 17.79%
0 0 32.5382 21 39.1708 Disjcuts:7 284 16.93%
0 2 32.9829 10 39.1708 33.0728 284 15.57%
CPXPARAM_MIP_Cuts_Gomory-Disjunctive:Gomory 4
CPXPARAM_MIP_Cuts_Gomory-Disjunctive:Disjunctive 12
27
Node Left Objective IInf Best_Integer Best_Bound ItCnt Gap
0+ 0 nan nan 94.5045 0.0000 nan 100.00%
0+ 0 nan nan 78.5671 0.0000 nan 100.00%
0 0 0.0000 22 78.5671 0.0000 116 100.00%
0+ 0 nan nan 24.3492 0.0000 nan 100.00%
0+ 0 nan nan 17.6947 0.0000 nan 100.00%
0+ 0 nan nan 15.7430 0.0000 nan 100.00%
0+ 0 nan nan 13.8807 0.0000 nan 100.00%
0 2 0.0000 14 13.8807 0.0000 116 100.00%
CPXPARAM_MIP_Cuts_Gomory-Disjunctive:Gomory 0
CPXPARAM_MIP_Cuts_Gomory-Disjunctive:Disjunctive 0
28
Node Left Objective IInf Best_Integer Best_Bound ItCnt Gap
0+ 0 nan nan 133.7092 0.0000 nan 100.00%
0+ 0 nan nan 129.6212 0.0000 nan 100.00%
0+ 0 nan nan 108.6480 0.0000 nan 100.00%
0 0 56.4662 14 108.6480 56.4662 159 48.03%
0+ 0 nan nan 85.0734 56.4662 nan 33.63%
0 0 56.4662 17 85.0734 Cuts:6 175 33.63%
0+ 0 nan nan 83.5002 56.4662 nan 32.38%
0 0 57.6353 25 83.5002 Cuts:7 205 30.98%
0 0 58.5587 24 83.5002 Cuts:24 224 29.87%
0 0 59.2350 24 83.5002 Cuts:8 245 29.06%
0 0 59.5521 30 83.5002 Cuts:13 273 28.68%
0 0 59.6237 30 83.5002 Cuts:4 287 28.59%
0 0 59.7467 27 83.5002 Disjcuts:2 311 28.45%
0 0 59.8045 26 83.5002 Disjcuts:1 317 28.38%
0 0 59.8146 27 83.5002 Disjcuts:2 320 28.37%
0+ 0 nan nan 75.5941 59.8146 nan 20.87%
0 2 59.8146 27 75.5941 59.8523 320 20.82%
CPXPARAM_MIP_Cuts_Gomory-Disjunctive:Gomory 4
CPXPARAM_MIP_Cuts_Gomory-Disjunctive:Disjunctive 12
29
Node Left Objective IInf Best_Integer Best_Bound ItCnt Gap
0+ 0 nan nan 133.7092 0.0000 nan 100.00%
0+ 0 nan nan 129.6212 0.0000 nan 100.00%
0 0 0.0000 27 129.6212 0.0000 120 100.00%
0+ 0 nan nan 34.2931 0.0000 nan 100.00%
0 0 0.0000 26 34.2931 Cuts:15 162 100.00%
0+ 0 nan nan 24.5549 0.0000 nan 100.00%
0 0 0.0000 30 24.5549 Cuts:29 230 100.00%
0 0 0.0000 26 24.5549 Cuts:11 277 100.00%
0+ 0 nan nan 23.1814 0.0000 nan 100.00%
0 0 0.0000 29 23.1814 Cuts:26 334 100.00%
0+ 0 nan nan 19.7734 0.0000 nan 100.00%
0 2 0.0000 26 19.7734 0.0000 334 100.00%
CPXPARAM_MIP_Cuts_Gomory-Disjunctive:Gomory 0
CPXPARAM_MIP_Cuts_Gomory-Disjunctive:Disjunctive 4
30
Node Left Objective IInf Best_Integer Best_Bound ItCnt Gap
0+ 0 nan nan 133.7092 0.0000 nan 100.00%
0+ 0 nan nan 114.7297 0.0000 nan 100.00%
0 0 62.4662 6 114.7297 62.4662 162 45.55%
0+ 0 nan nan 72.5749 62.4662 nan 13.93%
0 0 62.4662 15 72.5749 Cuts:7 180 13.93%
0+ 0 nan nan 72.4362 62.4662 nan 13.76%
0 0 62.5988 22 72.4362 Cuts:8 203 13.58%
0 0 63.3050 21 72.4362 Cuts:13 224 12.61%
0 0 63.8331 22 72.4362 Cuts:8 234 11.88%
0 0 63.9349 21 72.4362 Cuts:6 245 11.74%
0 0 63.9648 21 72.4362 Disjcuts:1 252 11.69%
0+ 0 nan nan 71.5646 63.9648 nan 10.62%
0 2 64.0959 13 71.5646 64.1036 252 10.43%
CPXPARAM_MIP_Cuts_Gomory-Disjunctive:Gomory 5
CPXPARAM_MIP_Cuts_Gomory-Disjunctive:Disjunctive 10
31
Node Left Objective IInf Best_Integer Best_Bound ItCnt Gap
0+ 0 nan nan 133.7092 0.0000 nan 100.00%
0+ 0 nan nan 114.7297 0.0000 nan 100.00%
0 0 0.0000 23 114.7297 0.0000 132 100.00%
0+ 0 nan nan 51.7630 0.0000 nan 100.00%
0 0 0.0000 21 51.7630 Cuts:13 145 100.00%
0+ 0 nan nan 39.4231 0.0000 nan 100.00%
0 0 0.0000 22 39.4231 Cuts:21 195 100.00%
0+ 0 nan nan 35.7367 0.0000 nan 100.00%
0 0 0.0000 17 35.7367 Disjcuts:1 198 100.00%
0+ 0 nan nan 8.0784 0.0000 nan 100.00%
0 0 0.0000 18 8.0784 Cuts:21 246 100.00%
0 2 0.0000 17 8.0784 0.0000 246 100.00%
CPXPARAM_MIP_Cuts_Gomory-Disjunctive:Gomory 0
CPXPARAM_MIP_Cuts_Gomory-Disjunctive:Disjunctive 1
32
Node Left Objective IInf Best_Integer Best_Bound ItCnt Gap
0+ 0 nan nan 110.7059 0.0000 nan 100.00%
0+ 0 nan nan 93.8685 0.0000 nan 100.00%
0+ 0 nan nan 89.9070 0.0000 nan 100.00%
0 0 38.4698 13 89.9070 38.4698 148 57.21%
0+ 0 nan nan 82.2491 38.4698 nan 53.23%
0 0 38.4698 13 82.2491 Cuts:11 166 53.23%
0+ 0 nan nan 61.4219 38.4698 nan 37.37%
0 0 38.7153 26 61.4219 Cuts:10 192 36.97%
0 0 39.1217 25 61.4219 Cuts:16 215 36.31%
0 0 39.2478 27 61.4219 Cuts:10 229 36.10%
0 0 39.3726 27 61.4219 Disjcuts:3 242 35.90%
0+ 0 nan nan 49.5438 39.3726 nan 20.53%
0 2 39.3874 26 49.5438 39.4303 242 20.41%
CPXPARAM_MIP_Cuts_Gomory-Disjunctive:Gomory 6
CPXPARAM_MIP_Cuts_Gomory-Disjunctive:Disjunctive 16
33
Node Left Objective IInf Best_Integer Best_Bound ItCnt Gap
0+ 0 nan nan 110.7059 0.0000 nan 100.00%
0+ 0 nan nan 93.8685 0.0000 nan 100.00%
0 0 0.0000 27 93.8685 0.0000 121 100.00%
0+ 0 nan nan 63.7992 0.0000 nan 100.00%
0+ 0 nan nan 33.7500 0.0000 nan 100.00%
0+ 0 nan nan 25.4909 0.0000 nan 100.00%
0+ 0 nan nan 21.6186 0.0000 nan 100.00%
0 2 0.0000 22 21.6186 0.0000 121 100.00%
CPXPARAM_MIP_Cuts_Gomory-Disjunctive:Gomory 0
CPXPARAM_MIP_Cuts_Gomory-Disjunctive:Disjunctive 0
34
Node Left Objective IInf Best_Integer Best_Bound ItCnt Gap
0+ 0 nan nan 110.7059 0.0000 nan 100.00%
0+ 0 nan nan 74.9711 0.0000 nan 100.00%
0 0 29.4698 13 74.9711 29.4698 166 60.69%
0+ 0 nan nan 57.9034 29.4698 nan 49.11%
0 0 29.6964 22 57.9034 Cuts:11 189 48.71%
0+ 0 nan nan 53.6524 29.6964 nan 44.65%
0 0 30.6015 23 53.6524 Cuts:20 205 42.96%
0 0 31.0801 22 53.6524 Cuts:14 221 42.07%
0 0 31.4775 22 53.6524 Cuts:9 238 41.33%
0 0 31.9000 21 53.6524 Cuts:8 259 40.54%
0+ 0 nan nan 46.3854 31.9000 nan 31.23%
0 2 31.9000 21 46.3854 32.0043 259 31.00%
CPXPARAM_MIP_Cuts_Gomory-Disjunctive:Gomory 2
CPXPARAM_MIP_Cuts_Gomory-Disjunctive:Disjunctive 12
35
Node Left Objective IInf Best_Integer Best_Bound ItCnt Gap
0+ 0 nan nan 110.7059 0.0000 nan 100.00%
0+ 0 nan nan 74.9711 0.0000 nan 100.00%
0 0 0.0000 24 74.9711 0.0000 110 100.00%
0+ 0 nan nan 44.1599 0.0000 nan 100.00%
0 0 0.0000 18 44.1599 Cuts:3 122 100.00%
0+ 0 nan nan 25.9021 0.0000 nan 100.00%
0 0 0.0000 20 25.9021 Cuts:20 168 100.00%
0+ 0 nan nan 22.6898 0.0000 nan 100.00%
0 0 0.0000 18 22.6898 Cuts:17 186 100.00%
0+ 0 nan nan 19.8183 0.0000 nan 100.00%
0+ 0 nan nan 12.8277 0.0000 nan 100.00%
0 2 0.0000 16 12.8277 0.0000 186 100.00%
CPXPARAM_MIP_Cuts_Gomory-Disjunctive:Gomory 0
CPXPARAM_MIP_Cuts_Gomory-Disjunctive:Disjunctive 0
36
Node Left Objective IInf Best_Integer Best_Bound ItCnt Gap
0+ 0 nan nan 123.7135 0.0000 nan 100.00%
0+ 0 nan nan 108.6148 0.0000 nan 100.00%
0+ 0 nan nan 99.0366 0.0000 nan 100.00%
0 0 33.0392 17 99.0366 33.0392 162 66.64%
0+ 0 nan nan 69.6923 33.0392 nan 52.59%
0 0 33.0392 22 69.6923 Disjcuts:4 181 52.59%
0+ 0 nan nan 67.1396 33.0392 nan 50.79%
0 0 34.2359 27 67.1396 Cuts:16 207 49.01%
0 0 35.1109 26 67.1396 Cuts:20 233 47.70%
0 0 35.7918 28 67.1396 Cuts:14 261 46.69%
0 0 36.3875 28 67.1396 Cuts:13 301 45.80%
0 0 36.5792 28 67.1396 Cuts:3 314 45.52%
0 0 36.5959 26 67.1396 Disjcuts:1 318 45.49%
0 2 36.5959 26 67.1396 36.5963 318 45.49%
CPXPARAM_MIP_Cuts_Gomory-Disjunctive:Gomory 5
CPXPARAM_MIP_Cuts_Gomory-Disjunctive:Disjunctive 12
37
Node Left Objective IInf Best_Integer Best_Bound ItCnt Gap
0+ 0 nan nan 123.7135 0.0000 nan 100.00%
0+ 0 nan nan 108.6148 0.0000 nan 100.00%
0+ 0 nan nan 79.9437 0.0000 nan 100.00%
0 0 0.0000 27 79.9437 0.0000 123 100.00%
0+ 0 nan nan 60.3094 0.0000 nan 100.00%
0 0 0.0000 21 60.3094 Cuts:7 135 100.00%
0+ 0 nan nan 56.3559 0.0000 nan 100.00%
0 0 0.0000 23 56.3559 Cuts:19 192 100.00%
0+ 0 nan nan 30.9558 0.0000 nan 100.00%
0+ 0 nan nan 27.3447 0.0000 nan 100.00%
0+ 0 nan nan 22.2508 0.0000 nan 100.00%
0 2 0.0000 19 22.2508 0.0000 192 100.00%
CPXPARAM_MIP_Cuts_Gomory-Disjunctive:Gomory 0
CPXPARAM_MIP_Cuts_Gomory-Disjunctive:Disjunctive 0
38
Node Left Objective IInf Best_Integer Best_Bound ItCnt Gap
0+ 0 nan nan 123.7135 0.0000 nan 100.00%
0+ 0 nan nan 89.1896 0.0000 nan 100.00%
0 0 42.0392 9 89.1896 42.0392 158 52.87%
0+ 0 nan nan 50.0222 42.0392 nan 15.96%
0 0 42.0392 11 50.0222 Cuts:10 174 15.96%
0+ 0 nan nan 48.4832 42.0392 nan 13.29%
0 0 42.4797 20 48.4832 Cuts:6 200 12.38%
0 0 42.8409 21 48.4832 Cuts:13 212 11.64%
0 0 43.0250 20 48.4832 Disjcuts:7 224 11.26%
0 0 43.1523 20 48.4832 Cuts:16 250 11.00%
0+ 0 nan nan 48.3396 43.1523 nan 10.73%
0 2 43.3079 11 48.3396 43.3509 250 10.32%
CPXPARAM_MIP_Cuts_Gomory-Disjunctive:Gomory 5
CPXPARAM_MIP_Cuts_Gomory-Disjunctive:Disjunctive 13
39
Node Left Objective IInf Best_Integer Best_Bound ItCnt Gap
0+ 0 nan nan 123.7135 0.0000 nan 100.00%
0+ 0 nan nan 89.1896 0.0000 nan 100.00%
0 0 0.0000 24 89.1896 0.0000 125 100.00%
0+ 0 nan nan 42.3458 0.0000 nan 100.00%
0+ 0 nan nan 13.9847 0.0000 nan 100.00%
0+ 0 nan nan 12.1466 0.0000 nan 100.00%
0 2 0.0000 14 12.1466 0.0000 125 100.00%
CPXPARAM_MIP_Cuts_Gomory-Disjunctive:Gomory 0
CPXPARAM_MIP_Cuts_Gomory-Disjunctive:Disjunctive 0
